result&benchmarks/Data/Ex1/verify/Output/fibo_2calls_2-1_process_dc_iter1Output/Counterexample.1.smt2
(set-info :source |printed by MathSAT|)
(declare-fun |fibo1::n@2| () (_ BitVec 32))
(declare-fun |fibo2::n@2| () (_ BitVec 32))
(declare-fun |fibo2::iVar2@3| () (_ BitVec 32))
(declare-fun |fibo2::__retval__@2| () (_ BitVec 32))
(declare-fun |fibo2::__retval__@3| () (_ BitVec 32))
(declare-fun |fibo1::__retval__@2| () (_ BitVec 32))
(declare-fun |fibo1::iVar1@4| () (_ BitVec 32))
(declare-fun |fibo2::n@4| () (_ BitVec 32))
(declare-fun |fibo2::iVar2@6| () (_ BitVec 32))
(declare-fun |fibo1::iVar2@5| () (_ BitVec 32))
(declare-fun |fibo1::iVar2@6| () (_ BitVec 32))
(declare-fun |main::iVar1@6| () (_ BitVec 32))
(assert (let ((.def_144 (= |main::iVar1@6| (_ bv1 32))))(let ((.def_142 (= |fibo1::__retval__@2| |main::iVar1@6|)))(let ((.def_139 (= |fibo1::__retval__@2| |fibo1::iVar2@6|)))(let ((.def_135 (bvadd |fibo1::iVar1@4| |fibo1::iVar2@5|)))(let ((.def_137 (= .def_135 |fibo1::iVar2@6|)))(let ((.def_132 (= |fibo2::__retval__@3| |fibo1::iVar2@5|)))(let ((.def_129 (= |fibo2::__retval__@3| |fibo2::iVar2@6|)))(let ((.def_127 (= |fibo2::iVar2@6| (_ bv0 32))))(let ((.def_123 (bvslt |fibo2::n@4| (_ bv1 32))))(let ((.def_53 (bvadd (_ bv4294967294 32) |fibo1::n@2|)))(let ((.def_121 (= .def_53 |fibo2::n@4|)))(let ((.def_118 (= |fibo2::__retval__@2| |fibo1::iVar1@4|)))(let ((.def_45 (= |fibo2::iVar2@3| |fibo2::__retval__@2|)))(let ((.def_42 (= |fibo2::iVar2@3| (_ bv1 32))))(let ((.def_36 (= |fibo2::n@2| (_ bv1 32))))(let ((.def_31 (bvslt |fibo2::n@2| (_ bv1 32))))(let ((.def_34 (not .def_31)))(let ((.def_27 (bvadd (_ bv4294967295 32) |fibo1::n@2|)))(let ((.def_29 (= .def_27 |fibo2::n@2|)))(let ((.def_19 (= |fibo1::n@2| (_ bv1 32))))(let ((.def_22 (not .def_19)))(let ((.def_14 (bvslt |fibo1::n@2| (_ bv1 32))))(let ((.def_17 (not .def_14)))(let ((.def_12 (= |fibo1::n@2| (_ bv2 32))))(let ((.def_18 (and .def_12 .def_17)))(let ((.def_23 (and .def_18 .def_22)))(let ((.def_30 (and .def_23 .def_29)))(let ((.def_35 (and .def_30 .def_34)))(let ((.def_38 (and .def_35 .def_36)))(let ((.def_43 (and .def_38 .def_42)))(let ((.def_46 (and .def_43 .def_45)))(let ((.def_119 (and .def_46 .def_118)))(let ((.def_122 (and .def_119 .def_121)))(let ((.def_125 (and .def_122 .def_123)))(let ((.def_128 (and .def_125 .def_127)))(let ((.def_130 (and .def_128 .def_129)))(let ((.def_133 (and .def_130 .def_132)))(let ((.def_138 (and .def_133 .def_137)))(let ((.def_140 (and .def_138 .def_139)))(let ((.def_143 (and .def_140 .def_142)))(let ((.def_146 (and .def_143 .def_144))).def_146))))))))))))))))))))))))))))))))))))))))))