result&benchmarks/Data/Ex1/verify/Output/fibo_2calls_2-1_process_dc_iter1Output/Counterexample.1.txt
none:	N73 -{INIT GLOBAL VARS}-> N93
/usr/include/assert.h, lines 69-71:	N93 -{void __assert_fail(const char *__assertion, const char *__file, unsigned int __line, const char *__function);}-> N94
/usr/include/assert.h, lines 74-76:	N94 -{void __assert_perror_fail(int __errnum, const char *__file, unsigned int __line, const char *__function);}-> N95
/usr/include/assert.h, lines 81-82:	N95 -{void __assert(const char *__assertion, const char *__file, int __line);}-> N96
/usr/lib/gcc/x86_64-linux-gnu/11/include/stddef.h, line 209:	N96 -{typedef unsigned long int size_t;}-> N97
/usr/lib/gcc/x86_64-linux-gnu/11/include/stddef.h, line 321:	N97 -{typedef int wchar_t;}-> N98
/usr/include/stdlib.h, lines 59-63:	N98 -{struct __anon_type_div_t {   int quot;   int rem; } ;}-> N99
/usr/include/stdlib.h, lines 59-63:	N99 -{typedef struct __anon_type_div_t div_t;}-> N100
/usr/include/stdlib.h, lines 67-71:	N100 -{struct __anon_type_ldiv_t {   long int quot;   long int rem; } ;}-> N101
/usr/include/stdlib.h, lines 67-71:	N101 -{typedef struct __anon_type_ldiv_t ldiv_t;}-> N102
/usr/include/stdlib.h, lines 77-81:	N102 -{struct __anon_type_lldiv_t {   long long int quot;   long long int rem; } ;}-> N103
/usr/include/stdlib.h, lines 77-81:	N103 -{typedef struct __anon_type_lldiv_t lldiv_t;}-> N104
/usr/include/stdlib.h, line 98:	N104 -{size_t __ctype_get_mb_cur_max();}-> N105
/usr/include/stdlib.h, lines 102-103:	N105 -{double atof(const char *__nptr);}-> N106
/usr/include/stdlib.h, lines 105-106:	N106 -{int atoi(const char *__nptr);}-> N107
/usr/include/stdlib.h, lines 108-109:	N107 -{long int atol(const char *__nptr);}-> N108
/usr/include/stdlib.h, lines 113-114:	N108 -{long long int atoll(const char *__nptr);}-> N109
/usr/include/stdlib.h, lines 118-120:	N109 -{double strtod(const char *__nptr, char **__endptr);}-> N110
/usr/include/stdlib.h, lines 124-125:	N110 -{float strtof(const char *__nptr, char **__endptr);}-> N111
/usr/include/stdlib.h, lines 127-129:	N111 -{long double strtold(const char *__nptr, char **__endptr);}-> N112
/usr/include/stdlib.h, lines 177-179:	N112 -{long int strtol(const char *__nptr, char **__endptr, int __base);}-> N113
/usr/include/stdlib.h, lines 181-183:	N113 -{unsigned long int strtoul(const char *__nptr, char **__endptr, int __base);}-> N114
/usr/include/stdlib.h, lines 188-190:	N114 -{long long int strtoq(const char *__nptr, char **__endptr, int __base);}-> N115
/usr/include/stdlib.h, lines 193-195:	N115 -{unsigned long long int strtouq(const char *__nptr, char **__endptr, int __base);}-> N116
/usr/include/stdlib.h, lines 201-203:	N116 -{long long int strtoll(const char *__nptr, char **__endptr, int __base);}-> N117
/usr/include/stdlib.h, lines 206-208:	N117 -{unsigned long long int strtoull(const char *__nptr, char **__endptr, int __base);}-> N118
/usr/include/stdlib.h, line 386:	N118 -{char *l64a(long int __n);}-> N119
/usr/include/stdlib.h, lines 389-390:	N119 -{long int a64l(const char *__s);}-> N120
/usr/include/x86_64-linux-gnu/bits/types.h, line 31:	N120 -{typedef unsigned char __u_char;}-> N121
/usr/include/x86_64-linux-gnu/bits/types.h, line 32:	N121 -{typedef unsigned short int __u_short;}-> N122
/usr/include/x86_64-linux-gnu/bits/types.h, line 33:	N122 -{typedef unsigned int __u_int;}-> N123
/usr/include/x86_64-linux-gnu/bits/types.h, line 34:	N123 -{typedef unsigned long int __u_long;}-> N124
/usr/include/x86_64-linux-gnu/bits/types.h, line 37:	N124 -{typedef signed char __int8_t;}-> N125
/usr/include/x86_64-linux-gnu/bits/types.h, line 38:	N125 -{typedef unsigned char __uint8_t;}-> N126
/usr/include/x86_64-linux-gnu/bits/types.h, line 39:	N126 -{typedef signed short int __int16_t;}-> N127
/usr/include/x86_64-linux-gnu/bits/types.h, line 40:	N127 -{typedef unsigned short int __uint16_t;}-> N128
/usr/include/x86_64-linux-gnu/bits/types.h, line 41:	N128 -{typedef signed int __int32_t;}-> N129
/usr/include/x86_64-linux-gnu/bits/types.h, line 42:	N129 -{typedef unsigned int __uint32_t;}-> N130
/usr/include/x86_64-linux-gnu/bits/types.h, line 44:	N130 -{typedef signed long int __int64_t;}-> N131
/usr/include/x86_64-linux-gnu/bits/types.h, line 45:	N131 -{typedef unsigned long int __uint64_t;}-> N132
/usr/include/x86_64-linux-gnu/bits/types.h, line 52:	N132 -{typedef __int8_t __int_least8_t;}-> N133
/usr/include/x86_64-linux-gnu/bits/types.h, line 53:	N133 -{typedef __uint8_t __uint_least8_t;}-> N134
/usr/include/x86_64-linux-gnu/bits/types.h, line 54:	N134 -{typedef __int16_t __int_least16_t;}-> N135
/usr/include/x86_64-linux-gnu/bits/types.h, line 55:	N135 -{typedef __uint16_t __uint_least16_t;}-> N136
/usr/include/x86_64-linux-gnu/bits/types.h, line 56:	N136 -{typedef __int32_t __int_least32_t;}-> N137
/usr/include/x86_64-linux-gnu/bits/types.h, line 57:	N137 -{typedef __uint32_t __uint_least32_t;}-> N138
/usr/include/x86_64-linux-gnu/bits/types.h, line 58:	N138 -{typedef __int64_t __int_least64_t;}-> N139
/usr/include/x86_64-linux-gnu/bits/types.h, line 59:	N139 -{typedef __uint64_t __uint_least64_t;}-> N140
/usr/include/x86_64-linux-gnu/bits/types.h, line 63:	N140 -{typedef long int __quad_t;}-> N141
/usr/include/x86_64-linux-gnu/bits/types.h, line 64:	N141 -{typedef unsigned long int __u_quad_t;}-> N142
/usr/include/x86_64-linux-gnu/bits/types.h, line 72:	N142 -{typedef long int __intmax_t;}-> N143
/usr/include/x86_64-linux-gnu/bits/types.h, line 73:	N143 -{typedef unsigned long int __uintmax_t;}-> N144
/usr/include/x86_64-linux-gnu/bits/types.h, line 145:	N144 -{typedef unsigned long int __dev_t;}-> N145
/usr/include/x86_64-linux-gnu/bits/types.h, line 146:	N145 -{typedef unsigned int __uid_t;}-> N146
/usr/include/x86_64-linux-gnu/bits/types.h, line 147:	N146 -{typedef unsigned int __gid_t;}-> N147
/usr/include/x86_64-linux-gnu/bits/types.h, line 148:	N147 -{typedef unsigned long int __ino_t;}-> N148
/usr/include/x86_64-linux-gnu/bits/types.h, line 149:	N148 -{typedef unsigned long int __ino64_t;}-> N149
/usr/include/x86_64-linux-gnu/bits/types.h, line 150:	N149 -{typedef unsigned int __mode_t;}-> N150
/usr/include/x86_64-linux-gnu/bits/types.h, line 151:	N150 -{typedef unsigned long int __nlink_t;}-> N151
/usr/include/x86_64-linux-gnu/bits/types.h, line 152:	N151 -{typedef long int __off_t;}-> N152
/usr/include/x86_64-linux-gnu/bits/types.h, line 153:	N152 -{typedef long int __off64_t;}-> N153
/usr/include/x86_64-linux-gnu/bits/types.h, line 154:	N153 -{typedef int __pid_t;}-> N154
/usr/include/x86_64-linux-gnu/bits/types.h, line 155:	N154 -{struct __anon_type___fsid_t {   int __val[2]; } ;}-> N155
/usr/include/x86_64-linux-gnu/bits/types.h, line 155:	N155 -{typedef struct __anon_type___fsid_t __fsid_t;}-> N156
/usr/include/x86_64-linux-gnu/bits/types.h, line 156:	N156 -{typedef long int __clock_t;}-> N157
/usr/include/x86_64-linux-gnu/bits/types.h, line 157:	N157 -{typedef unsigned long int __rlim_t;}-> N158
/usr/include/x86_64-linux-gnu/bits/types.h, line 158:	N158 -{typedef unsigned long int __rlim64_t;}-> N159
/usr/include/x86_64-linux-gnu/bits/types.h, line 159:	N159 -{typedef unsigned int __id_t;}-> N160
/usr/include/x86_64-linux-gnu/bits/types.h, line 160:	N160 -{typedef long int __time_t;}-> N161
/usr/include/x86_64-linux-gnu/bits/types.h, line 161:	N161 -{typedef unsigned int __useconds_t;}-> N162
/usr/include/x86_64-linux-gnu/bits/types.h, line 162:	N162 -{typedef long int __suseconds_t;}-> N163
/usr/include/x86_64-linux-gnu/bits/types.h, line 163:	N163 -{typedef long int __suseconds64_t;}-> N164
/usr/include/x86_64-linux-gnu/bits/types.h, line 165:	N164 -{typedef int __daddr_t;}-> N165
/usr/include/x86_64-linux-gnu/bits/types.h, line 166:	N165 -{typedef int __key_t;}-> N166
/usr/include/x86_64-linux-gnu/bits/types.h, line 169:	N166 -{typedef int __clockid_t;}-> N167
/usr/include/x86_64-linux-gnu/bits/types.h, line 172:	N167 -{typedef void *__timer_t;}-> N168
/usr/include/x86_64-linux-gnu/bits/types.h, line 175:	N168 -{typedef long int __blksize_t;}-> N169
/usr/include/x86_64-linux-gnu/bits/types.h, line 180:	N169 -{typedef long int __blkcnt_t;}-> N170
/usr/include/x86_64-linux-gnu/bits/types.h, line 181:	N170 -{typedef long int __blkcnt64_t;}-> N171
/usr/include/x86_64-linux-gnu/bits/types.h, line 184:	N171 -{typedef unsigned long int __fsblkcnt_t;}-> N172
/usr/include/x86_64-linux-gnu/bits/types.h, line 185:	N172 -{typedef unsigned long int __fsblkcnt64_t;}-> N173
/usr/include/x86_64-linux-gnu/bits/types.h, line 188:	N173 -{typedef unsigned long int __fsfilcnt_t;}-> N174
/usr/include/x86_64-linux-gnu/bits/types.h, line 189:	N174 -{typedef unsigned long int __fsfilcnt64_t;}-> N175
/usr/include/x86_64-linux-gnu/bits/types.h, line 192:	N175 -{typedef long int __fsword_t;}-> N176
/usr/include/x86_64-linux-gnu/bits/types.h, line 194:	N176 -{typedef long int __ssize_t;}-> N177
/usr/include/x86_64-linux-gnu/bits/types.h, line 197:	N177 -{typedef long int __syscall_slong_t;}-> N178
/usr/include/x86_64-linux-gnu/bits/types.h, line 199:	N178 -{typedef unsigned long int __syscall_ulong_t;}-> N179
/usr/include/x86_64-linux-gnu/bits/types.h, line 203:	N179 -{typedef __off64_t __loff_t;}-> N180
/usr/include/x86_64-linux-gnu/bits/types.h, line 204:	N180 -{typedef char *__caddr_t;}-> N181
/usr/include/x86_64-linux-gnu/bits/types.h, line 207:	N181 -{typedef long int __intptr_t;}-> N182
/usr/include/x86_64-linux-gnu/bits/types.h, line 210:	N182 -{typedef unsigned int __socklen_t;}-> N183
/usr/include/x86_64-linux-gnu/bits/types.h, line 215:	N183 -{typedef int __sig_atomic_t;}-> N184
/usr/include/x86_64-linux-gnu/sys/types.h, line 33:	N184 -{typedef __u_char u_char;}-> N185
/usr/include/x86_64-linux-gnu/sys/types.h, line 34:	N185 -{typedef __u_short u_short;}-> N186
/usr/include/x86_64-linux-gnu/sys/types.h, line 35:	N186 -{typedef __u_int u_int;}-> N187
/usr/include/x86_64-linux-gnu/sys/types.h, line 36:	N187 -{typedef __u_long u_long;}-> N188
/usr/include/x86_64-linux-gnu/sys/types.h, line 37:	N188 -{typedef __quad_t quad_t;}-> N189
/usr/include/x86_64-linux-gnu/sys/types.h, line 38:	N189 -{typedef __u_quad_t u_quad_t;}-> N190
/usr/include/x86_64-linux-gnu/sys/types.h, line 39:	N190 -{typedef __fsid_t fsid_t;}-> N191
/usr/include/x86_64-linux-gnu/sys/types.h, line 42:	N191 -{typedef __loff_t loff_t;}-> N192
/usr/include/x86_64-linux-gnu/sys/types.h, line 47:	N192 -{typedef __ino_t ino_t;}-> N193
/usr/include/x86_64-linux-gnu/sys/types.h, line 59:	N193 -{typedef __dev_t dev_t;}-> N194
/usr/include/x86_64-linux-gnu/sys/types.h, line 64:	N194 -{typedef __gid_t gid_t;}-> N195
/usr/include/x86_64-linux-gnu/sys/types.h, line 69:	N195 -{typedef __mode_t mode_t;}-> N196
/usr/include/x86_64-linux-gnu/sys/types.h, line 74:	N196 -{typedef __nlink_t nlink_t;}-> N197
/usr/include/x86_64-linux-gnu/sys/types.h, line 79:	N197 -{typedef __uid_t uid_t;}-> N198
/usr/include/x86_64-linux-gnu/sys/types.h, line 85:	N198 -{typedef __off_t off_t;}-> N199
/usr/include/x86_64-linux-gnu/sys/types.h, line 97:	N199 -{typedef __pid_t pid_t;}-> N200
/usr/include/x86_64-linux-gnu/sys/types.h, line 103:	N200 -{typedef __id_t id_t;}-> N201
/usr/include/x86_64-linux-gnu/sys/types.h, line 108:	N201 -{typedef __ssize_t ssize_t;}-> N202
/usr/include/x86_64-linux-gnu/sys/types.h, line 114:	N202 -{typedef __daddr_t daddr_t;}-> N203
/usr/include/x86_64-linux-gnu/sys/types.h, line 115:	N203 -{typedef __caddr_t caddr_t;}-> N204
/usr/include/x86_64-linux-gnu/sys/types.h, line 121:	N204 -{typedef __key_t key_t;}-> N205
/usr/include/x86_64-linux-gnu/bits/types/clock_t.h, line 7:	N205 -{typedef __clock_t clock_t;}-> N206
/usr/include/x86_64-linux-gnu/bits/types/clockid_t.h, line 7:	N206 -{typedef __clockid_t clockid_t;}-> N207
/usr/include/x86_64-linux-gnu/bits/types/time_t.h, line 10:	N207 -{typedef __time_t time_t;}-> N208
/usr/include/x86_64-linux-gnu/bits/types/timer_t.h, line 7:	N208 -{typedef __timer_t timer_t;}-> N209
/usr/include/x86_64-linux-gnu/sys/types.h, line 148:	N209 -{typedef unsigned long int ulong;}-> N210
/usr/include/x86_64-linux-gnu/sys/types.h, line 149:	N210 -{typedef unsigned short int ushort;}-> N211
/usr/include/x86_64-linux-gnu/sys/types.h, line 150:	N211 -{typedef unsigned int uint;}-> N212
/usr/include/x86_64-linux-gnu/bits/stdint-intn.h, line 24:	N212 -{typedef __int8_t int8_t;}-> N213
/usr/include/x86_64-linux-gnu/bits/stdint-intn.h, line 25:	N213 -{typedef __int16_t int16_t;}-> N214
/usr/include/x86_64-linux-gnu/bits/stdint-intn.h, line 26:	N214 -{typedef __int32_t int32_t;}-> N215
/usr/include/x86_64-linux-gnu/bits/stdint-intn.h, line 27:	N215 -{typedef __int64_t int64_t;}-> N216
/usr/include/x86_64-linux-gnu/sys/types.h, line 158:	N216 -{typedef __uint8_t u_int8_t;}-> N217
/usr/include/x86_64-linux-gnu/sys/types.h, line 159:	N217 -{typedef __uint16_t u_int16_t;}-> N218
/usr/include/x86_64-linux-gnu/sys/types.h, line 160:	N218 -{typedef __uint32_t u_int32_t;}-> N219
/usr/include/x86_64-linux-gnu/sys/types.h, line 161:	N219 -{typedef __uint64_t u_int64_t;}-> N220
/usr/include/x86_64-linux-gnu/sys/types.h, line 164:	N220 -{typedef signed int register_t;}-> N221
/usr/include/x86_64-linux-gnu/bits/byteswap.h, lines 33-41:	N221 -{__uint16_t __bswap_16(__uint16_t __bsx);}-> N222
/usr/include/x86_64-linux-gnu/bits/byteswap.h, lines 48-56:	N222 -{__uint32_t __bswap_32(__uint32_t __bsx);}-> N223
/usr/include/x86_64-linux-gnu/bits/byteswap.h, lines 69-77:	N223 -{__uint64_t __bswap_64(__uint64_t __bsx);}-> N224
/usr/include/x86_64-linux-gnu/bits/uintn-identity.h, lines 32-36:	N224 -{__uint16_t __uint16_identity(__uint16_t __x);}-> N225
/usr/include/x86_64-linux-gnu/bits/uintn-identity.h, lines 38-42:	N225 -{__uint32_t __uint32_identity(__uint32_t __x);}-> N226
/usr/include/x86_64-linux-gnu/bits/uintn-identity.h, lines 44-48:	N226 -{__uint64_t __uint64_identity(__uint64_t __x);}-> N227
/usr/include/x86_64-linux-gnu/bits/types/__sigset_t.h, lines 5-8:	N227 -{struct __anon_type___sigset_t {   unsigned long int __val[32UL]; } ;}-> N228
/usr/include/x86_64-linux-gnu/bits/types/__sigset_t.h, lines 5-8:	N228 -{typedef struct __anon_type___sigset_t __sigset_t;}-> N229
/usr/include/x86_64-linux-gnu/bits/types/sigset_t.h, line 7:	N229 -{typedef __sigset_t sigset_t;}-> N230
/usr/include/x86_64-linux-gnu/bits/types/struct_timeval.h, lines 8-17:	N230 -{struct timeval {   __time_t tv_sec;   __suseconds_t tv_usec; } ;}-> N231
/usr/include/x86_64-linux-gnu/bits/types/struct_timespec.h, lines 11-31:	N231 -{struct timespec {   __time_t tv_sec;   __syscall_slong_t tv_nsec; } ;}-> N232
/usr/include/x86_64-linux-gnu/sys/select.h, line 43:	N232 -{typedef __suseconds_t suseconds_t;}-> N233
/usr/include/x86_64-linux-gnu/sys/select.h, line 49:	N233 -{typedef long int __fd_mask;}-> N234
/usr/include/x86_64-linux-gnu/sys/select.h, lines 59-70:	N234 -{struct __anon_type_fd_set {   __fd_mask __fds_bits[32]; } ;}-> N235
/usr/include/x86_64-linux-gnu/sys/select.h, lines 59-70:	N235 -{typedef struct __anon_type_fd_set fd_set;}-> N236
/usr/include/x86_64-linux-gnu/sys/select.h, line 77:	N236 -{typedef __fd_mask fd_mask;}-> N237
/usr/include/x86_64-linux-gnu/sys/select.h, lines 102-105:	N237 -{int select(int __nfds, fd_set *__readfds, fd_set *__writefds, fd_set *__exceptfds, struct timeval *__timeout);}-> N238
/usr/include/x86_64-linux-gnu/sys/select.h, lines 127-131:	N238 -{int pselect(int __nfds, fd_set *__readfds, fd_set *__writefds, fd_set *__exceptfds, const struct timespec *__timeout, const __sigset_t *__sigmask);}-> N239
/usr/include/x86_64-linux-gnu/sys/types.h, line 185:	N239 -{typedef __blksize_t blksize_t;}-> N240
/usr/include/x86_64-linux-gnu/sys/types.h, line 192:	N240 -{typedef __blkcnt_t blkcnt_t;}-> N241
/usr/include/x86_64-linux-gnu/sys/types.h, line 196:	N241 -{typedef __fsblkcnt_t fsblkcnt_t;}-> N242
/usr/include/x86_64-linux-gnu/sys/types.h, line 200:	N242 -{typedef __fsfilcnt_t fsfilcnt_t;}-> N243
/usr/include/x86_64-linux-gnu/bits/atomic_wide_counter.h, lines 28-32:	N243 -{struct __anon_type_0 {   unsigned int __low;   unsigned int __high; } ;}-> N244
/usr/include/x86_64-linux-gnu/bits/atomic_wide_counter.h, lines 25-33:	N244 -{union __anon_type___atomic_wide_counter {   unsigned long long int __value64;   struct __anon_type_0 __value32; } ;}-> N245
/usr/include/x86_64-linux-gnu/bits/atomic_wide_counter.h, lines 25-33:	N245 -{typedef union __anon_type___atomic_wide_counter __atomic_wide_counter;}-> N246
/usr/include/x86_64-linux-gnu/bits/thread-shared-types.h, lines 51-55:	N246 -{struct __pthread_internal_list {   struct __pthread_internal_list *__prev;   struct __pthread_internal_list *__next; } ;}-> N247
/usr/include/x86_64-linux-gnu/bits/thread-shared-types.h, lines 51-55:	N247 -{typedef struct __pthread_internal_list __pthread_list_t;}-> N248
/usr/include/x86_64-linux-gnu/bits/thread-shared-types.h, lines 57-60:	N248 -{struct __pthread_internal_slist {   struct __pthread_internal_slist *__next; } ;}-> N249
/usr/include/x86_64-linux-gnu/bits/thread-shared-types.h, lines 57-60:	N249 -{typedef struct __pthread_internal_slist __pthread_slist_t;}-> N250
/usr/include/x86_64-linux-gnu/bits/struct_mutex.h, lines 22-53:	N250 -{struct __pthread_mutex_s {   int __lock;   unsigned int __count;   int __owner;   unsigned int __nusers;   int __kind;   short __spins;   short __elision;   __pthread_list_t __list; } ;}-> N251
/usr/include/x86_64-linux-gnu/bits/struct_rwlock.h, lines 23-55:	N251 -{struct __pthread_rwlock_arch_t {   unsigned int __readers;   unsigned int __writers;   unsigned int __wrphase_futex;   unsigned int __writers_futex;   unsigned int __pad3;   unsigned int __pad4;   int __cur_writer;   int __shared;   signed char __rwelision;   unsigned char __pad1[7];   unsigned long int __pad2;   unsigned int __flags; } ;}-> N252
/usr/include/x86_64-linux-gnu/bits/thread-shared-types.h, lines 94-103:	N252 -{struct __pthread_cond_s {   __atomic_wide_counter __wseq;   __atomic_wide_counter __g1_start;   unsigned int __g_refs[2];   unsigned int __g_size[2];   unsigned int __g1_orig_size;   unsigned int __wrefs;   unsigned int __g_signals[2]; } ;}-> N253
/usr/include/x86_64-linux-gnu/bits/thread-shared-types.h, line 105:	N253 -{typedef unsigned int __tss_t;}-> N254
/usr/include/x86_64-linux-gnu/bits/thread-shared-types.h, line 106:	N254 -{typedef unsigned long int __thrd_t;}-> N255
/usr/include/x86_64-linux-gnu/bits/thread-shared-types.h, lines 108-111:	N255 -{struct __anon_type___once_flag {   int __data; } ;}-> N256
/usr/include/x86_64-linux-gnu/bits/thread-shared-types.h, lines 108-111:	N256 -{typedef struct __anon_type___once_flag __once_flag;}-> N257
/usr/include/x86_64-linux-gnu/bits/pthreadtypes.h, line 27:	N257 -{typedef unsigned long int pthread_t;}-> N258
/usr/include/x86_64-linux-gnu/bits/pthreadtypes.h, lines 32-36:	N258 -{union __anon_type_pthread_mutexattr_t {   char __size[4];   int __align; } ;}-> N259
/usr/include/x86_64-linux-gnu/bits/pthreadtypes.h, lines 32-36:	N259 -{typedef union __anon_type_pthread_mutexattr_t pthread_mutexattr_t;}-> N260
/usr/include/x86_64-linux-gnu/bits/pthreadtypes.h, lines 41-45:	N260 -{union __anon_type_pthread_condattr_t {   char __size[4];   int __align; } ;}-> N261
/usr/include/x86_64-linux-gnu/bits/pthreadtypes.h, lines 41-45:	N261 -{typedef union __anon_type_pthread_mutexattr_t pthread_condattr_t;}-> N262
/usr/include/x86_64-linux-gnu/bits/pthreadtypes.h, line 49:	N262 -{typedef unsigned int pthread_key_t;}-> N263
/usr/include/x86_64-linux-gnu/bits/pthreadtypes.h, line 53:	N263 -{typedef int pthread_once_t;}-> N264
/usr/include/x86_64-linux-gnu/bits/pthreadtypes.h, lines 56-60:	N264 -{union pthread_attr_t {   char __size[56];   long int __align; } ;}-> N265
/usr/include/x86_64-linux-gnu/bits/pthreadtypes.h, line 62:	N265 -{typedef union pthread_attr_t pthread_attr_t;}-> N266
/usr/include/x86_64-linux-gnu/bits/pthreadtypes.h, lines 67-72:	N266 -{union __anon_type_pthread_mutex_t {   struct __pthread_mutex_s __data;   char __size[40];   long int __align; } ;}-> N267
/usr/include/x86_64-linux-gnu/bits/pthreadtypes.h, lines 67-72:	N267 -{typedef union __anon_type_pthread_mutex_t pthread_mutex_t;}-> N268
/usr/include/x86_64-linux-gnu/bits/pthreadtypes.h, lines 75-80:	N268 -{union __anon_type_pthread_cond_t {   struct __pthread_cond_s __data;   char __size[48];   long long int __align; } ;}-> N269
/usr/include/x86_64-linux-gnu/bits/pthreadtypes.h, lines 75-80:	N269 -{typedef union __anon_type_pthread_cond_t pthread_cond_t;}-> N270
/usr/include/x86_64-linux-gnu/bits/pthreadtypes.h, lines 86-91:	N270 -{union __anon_type_pthread_rwlock_t {   struct __pthread_rwlock_arch_t __data;   char __size[56];   long int __align; } ;}-> N271
/usr/include/x86_64-linux-gnu/bits/pthreadtypes.h, lines 86-91:	N271 -{typedef union __anon_type_pthread_rwlock_t pthread_rwlock_t;}-> N272
/usr/include/x86_64-linux-gnu/bits/pthreadtypes.h, lines 93-97:	N272 -{union __anon_type_pthread_rwlockattr_t {   char __size[8];   long int __align; } ;}-> N273
/usr/include/x86_64-linux-gnu/bits/pthreadtypes.h, lines 93-97:	N273 -{typedef union __anon_type_pthread_rwlockattr_t pthread_rwlockattr_t;}-> N274
/usr/include/x86_64-linux-gnu/bits/pthreadtypes.h, line 103:	N274 -{typedef volatile int pthread_spinlock_t;}-> N275
/usr/include/x86_64-linux-gnu/bits/pthreadtypes.h, lines 108-112:	N275 -{union __anon_type_pthread_barrier_t {   char __size[32];   long int __align; } ;}-> N276
/usr/include/x86_64-linux-gnu/bits/pthreadtypes.h, lines 108-112:	N276 -{typedef union __anon_type_pthread_barrier_t pthread_barrier_t;}-> N277
/usr/include/x86_64-linux-gnu/bits/pthreadtypes.h, lines 114-118:	N277 -{union __anon_type_pthread_barrierattr_t {   char __size[4];   int __align; } ;}-> N278
/usr/include/x86_64-linux-gnu/bits/pthreadtypes.h, lines 114-118:	N278 -{typedef union __anon_type_pthread_mutexattr_t pthread_barrierattr_t;}-> N279
/usr/include/stdlib.h, line 402:	N279 -{long int random();}-> N280
/usr/include/stdlib.h, line 405:	N280 -{void srandom(unsigned int __seed);}-> N281
/usr/include/stdlib.h, lines 411-412:	N281 -{char *initstate(unsigned int __seed, char *__statebuf, size_t __statelen);}-> N282
/usr/include/stdlib.h, line 416:	N282 -{char *setstate(char *__statebuf);}-> N283
/usr/include/stdlib.h, lines 424-433:	N283 -{struct random_data {   int32_t *fptr;   int32_t *rptr;   int32_t *state;   int rand_type;   int rand_deg;   int rand_sep;   int32_t *end_ptr; } ;}-> N284
/usr/include/stdlib.h, lines 435-436:	N284 -{int random_r(struct random_data *__buf, int32_t *__result);}-> N285
/usr/include/stdlib.h, lines 438-439:	N285 -{int srandom_r(unsigned int __seed, struct random_data *__buf);}-> N286
/usr/include/stdlib.h, lines 441-444:	N286 -{int initstate_r(unsigned int __seed, char *__statebuf, size_t __statelen, struct random_data *__buf);}-> N287
/usr/include/stdlib.h, lines 446-448:	N287 -{int setstate_r(char *__statebuf, struct random_data *__buf);}-> N288
/usr/include/stdlib.h, line 454:	N288 -{int rand();}-> N289
/usr/include/stdlib.h, line 456:	N289 -{void srand(unsigned int __seed);}-> N290
/usr/include/stdlib.h, line 460:	N290 -{int rand_r(unsigned int *__seed);}-> N291
/usr/include/stdlib.h, line 468:	N291 -{double drand48();}-> N292
/usr/include/stdlib.h, line 469:	N292 -{double erand48(unsigned short int __xsubi[3]);}-> N293
/usr/include/stdlib.h, line 472:	N293 -{long int lrand48();}-> N294
/usr/include/stdlib.h, lines 473-474:	N294 -{long int nrand48(unsigned short int __xsubi[3]);}-> N295
/usr/include/stdlib.h, line 477:	N295 -{long int mrand48();}-> N296
/usr/include/stdlib.h, lines 478-479:	N296 -{long int jrand48(unsigned short int __xsubi[3]);}-> N297
/usr/include/stdlib.h, line 482:	N297 -{void srand48(long int __seedval);}-> N298
/usr/include/stdlib.h, lines 483-484:	N298 -{unsigned short int *seed48(unsigned short int __seed16v[3]);}-> N299
/usr/include/stdlib.h, line 485:	N299 -{void lcong48(unsigned short int __param[7]);}-> N300
/usr/include/stdlib.h, lines 491-499:	N300 -{struct drand48_data {   unsigned short int __x[3];   unsigned short int __old_x[3];   unsigned short int __c;   unsigned short int __init;   unsigned long long int __a; } ;}-> N301
/usr/include/stdlib.h, lines 502-503:	N301 -{int drand48_r(struct drand48_data *__buffer, double *__result);}-> N302
/usr/include/stdlib.h, lines 504-506:	N302 -{int erand48_r(unsigned short int __xsubi[3], struct drand48_data *__buffer, double *__result);}-> N303
/usr/include/stdlib.h, lines 509-511:	N303 -{int lrand48_r(struct drand48_data *__buffer, long int *__result);}-> N304
/usr/include/stdlib.h, lines 512-515:	N304 -{int nrand48_r(unsigned short int __xsubi[3], struct drand48_data *__buffer, long int *__result);}-> N305
/usr/include/stdlib.h, lines 518-520:	N305 -{int mrand48_r(struct drand48_data *__buffer, long int *__result);}-> N306
/usr/include/stdlib.h, lines 521-524:	N306 -{int jrand48_r(unsigned short int __xsubi[3], struct drand48_data *__buffer, long int *__result);}-> N307
/usr/include/stdlib.h, lines 527-528:	N307 -{int srand48_r(long int __seedval, struct drand48_data *__buffer);}-> N308
/usr/include/stdlib.h, lines 530-531:	N308 -{int seed48_r(unsigned short int __seed16v[3], struct drand48_data *__buffer);}-> N309
/usr/include/stdlib.h, lines 533-535:	N309 -{int lcong48_r(unsigned short int __param[7], struct drand48_data *__buffer);}-> N310
/usr/include/stdlib.h, lines 540-541:	N310 -{void *malloc(size_t __size);}-> N311
/usr/include/stdlib.h, lines 543-544:	N311 -{void *calloc(size_t __nmemb, size_t __size);}-> N312
/usr/include/stdlib.h, lines 551-552:	N312 -{void *realloc(void *__ptr, size_t __size);}-> N313
/usr/include/stdlib.h, line 555:	N313 -{void free(void *__ptr);}-> N314
/usr/include/stdlib.h, lines 563-566:	N314 -{void *reallocarray(void *__ptr, size_t __nmemb, size_t __size);}-> N315
/usr/include/alloca.h, line 32:	N315 -{void *alloca(size_t __size);}-> N316
/usr/include/stdlib.h, lines 580-581:	N316 -{void *valloc(size_t __size);}-> N317
/usr/include/stdlib.h, lines 586-587:	N317 -{int posix_memalign(void **__memptr, size_t __alignment, size_t __size);}-> N318
/usr/include/stdlib.h, lines 592-594:	N318 -{void *aligned_alloc(size_t __alignment, size_t __size);}-> N319
/usr/include/stdlib.h, line 598:	N319 -{void abort();}-> N320
/usr/include/stdlib.h, line 602:	N320 -{int atexit(void (*__func)());}-> N321
/usr/include/stdlib.h, line 610:	N321 -{int at_quick_exit(void (*__func)());}-> N322
/usr/include/stdlib.h, lines 617-618:	N322 -{int on_exit(void (*__func)(int __status, void *__arg), void *__arg);}-> N323
/usr/include/stdlib.h, line 624:	N323 -{void exit(int __status);}-> N324
/usr/include/stdlib.h, line 630:	N324 -{void quick_exit(int __status);}-> N325
/usr/include/stdlib.h, line 636:	N325 -{void _Exit(int __status);}-> N326
/usr/include/stdlib.h, line 641:	N326 -{char *getenv(const char *__name);}-> N327
/usr/include/stdlib.h, line 654:	N327 -{int putenv(char *__string);}-> N328
/usr/include/stdlib.h, lines 660-661:	N328 -{int setenv(const char *__name, const char *__value, int __replace);}-> N329
/usr/include/stdlib.h, line 664:	N329 -{int unsetenv(const char *__name);}-> N330
/usr/include/stdlib.h, line 671:	N330 -{int clearenv();}-> N331
/usr/include/stdlib.h, line 682:	N331 -{char *mktemp(char *__template);}-> N332
/usr/include/stdlib.h, line 695:	N332 -{int mkstemp(char *__template);}-> N333
/usr/include/stdlib.h, line 717:	N333 -{int mkstemps(char *__template, int __suffixlen);}-> N334
/usr/include/stdlib.h, line 738:	N334 -{char *mkdtemp(char *__template);}-> N335
/usr/include/stdlib.h, line 791:	N335 -{int system(const char *__command);}-> N336
/usr/include/stdlib.h, lines 808-809:	N336 -{char *realpath(const char *__name, char *__resolved);}-> N337
/usr/include/stdlib.h, line 816:	N337 -{typedef int (*__compar_fn_t)(const void *, const void *);}-> N338
/usr/include/stdlib.h, lines 828-830:	N338 -{void *bsearch(const void *__key, const void *__base, size_t __nmemb, size_t __size, __compar_fn_t __compar);}-> N339
/usr/include/stdlib.h, lines 838-839:	N339 -{void qsort(void *__base, size_t __nmemb, size_t __size, __compar_fn_t __compar);}-> N340
/usr/include/stdlib.h, line 848:	N340 -{int abs(int __x);}-> N341
/usr/include/stdlib.h, line 849:	N341 -{long int labs(long int __x);}-> N342
/usr/include/stdlib.h, lines 852-853:	N342 -{long long int llabs(long long int __x);}-> N343
/usr/include/stdlib.h, lines 860-861:	N343 -{div_t div(int __numer, int __denom);}-> N344
/usr/include/stdlib.h, lines 862-863:	N344 -{ldiv_t ldiv(long int __numer, long int __denom);}-> N345
/usr/include/stdlib.h, lines 866-868:	N345 -{lldiv_t lldiv(long long int __numer, long long int __denom);}-> N346
/usr/include/stdlib.h, lines 880-881:	N346 -{char *ecvt(double __value, int __ndigit, int *__decpt, int *__sign);}-> N347
/usr/include/stdlib.h, lines 886-887:	N347 -{char *fcvt(double __value, int __ndigit, int *__decpt, int *__sign);}-> N348
/usr/include/stdlib.h, lines 892-893:	N348 -{char *gcvt(double __value, int __ndigit, char *__buf);}-> N349
/usr/include/stdlib.h, lines 898-900:	N349 -{char *qecvt(long double __value, int __ndigit, int *__decpt, int *__sign);}-> N350
/usr/include/stdlib.h, lines 901-903:	N350 -{char *qfcvt(long double __value, int __ndigit, int *__decpt, int *__sign);}-> N351
/usr/include/stdlib.h, lines 904-905:	N351 -{char *qgcvt(long double __value, int __ndigit, char *__buf);}-> N352
/usr/include/stdlib.h, lines 910-912:	N352 -{int ecvt_r(double __value, int __ndigit, int *__decpt, int *__sign, char *__buf, size_t __len);}-> N353
/usr/include/stdlib.h, lines 913-915:	N353 -{int fcvt_r(double __value, int __ndigit, int *__decpt, int *__sign, char *__buf, size_t __len);}-> N354
/usr/include/stdlib.h, lines 917-920:	N354 -{int qecvt_r(long double __value, int __ndigit, int *__decpt, int *__sign, char *__buf, size_t __len);}-> N355
/usr/include/stdlib.h, lines 921-924:	N355 -{int qfcvt_r(long double __value, int __ndigit, int *__decpt, int *__sign, char *__buf, size_t __len);}-> N356
/usr/include/stdlib.h, line 930:	N356 -{int mblen(const char *__s, size_t __n);}-> N357
/usr/include/stdlib.h, lines 933-934:	N357 -{int mbtowc(wchar_t *__pwc, const char *__s, size_t __n);}-> N358
/usr/include/stdlib.h, line 937:	N358 -{int wctomb(char *__s, wchar_t __wchar);}-> N359
/usr/include/stdlib.h, lines 941-943:	N359 -{size_t mbstowcs(wchar_t *__pwcs, const char *__s, size_t __n);}-> N360
/usr/include/stdlib.h, lines 945-949:	N360 -{size_t wcstombs(char *__s, const wchar_t *__pwcs, size_t __n);}-> N361
/usr/include/stdlib.h, line 956:	N361 -{int rpmatch(const char *__response);}-> N362
/usr/include/stdlib.h, lines 967-970:	N362 -{int getsubopt(char **__optionp, char * const *__tokens, char **__valuep);}-> N363
/usr/include/stdlib.h, lines 1013-1014:	N363 -{int getloadavg(double __loadavg[], int __nelem);}-> N364
line 5:	N364 -{int fibo1(int n);}-> N365
line 6:	N365 -{int fibo2(int n);}-> N366
lines 8-10:	N366 -{void assume(int cond);}-> N367
lines 50-60:	N367 -{int main();}-> N368
none:	N368 -{Function start dummy edge}-> N74
line 51:	N74 -{int iVar1;}-> N75
line 52:	N75 -{int result;}-> N76
line 53:	N76 -{int x;}-> N77
line 55:	N77 -{fibo1(2)}-> N37
none:	N37 -{Function start dummy edge}-> N38
	n == 2;
line 13:	N38 -{int iVar1;}-> N39
	n == 2;
line 14:	N39 -{int iVar2;}-> N40
line 15:	N40 -{int n_local;}-> N41
line 17:	N41 -{[!(n < 1)]}-> N44
	n == 2;
	n == 2;
line 20:	N44 -{[!(n == 1)]}-> N48
	n == 2;
	n == 2;
line 24:	N48 -{fibo2(n - 1)}-> N55
none:	N55 -{Function start dummy edge}-> N56
	n == 1;
line 32:	N56 -{int iVar1;}-> N57
	n == 1;
line 33:	N57 -{int iVar2;}-> N58
line 34:	N58 -{int n_local;}-> N59
line 36:	N59 -{[!(n < 1)]}-> N62
	n == 1;
	n == 1;
line 39:	N62 -{[n == 1]}-> N65
	n == 1;
	n == 1;
line 40:	N65 -{iVar2 = 1;}-> N67
	iVar2 == 1;
none:	N67 -{}-> N60
line 47:	N60 -{return iVar2;}-> N54
	iVar2 = 1
line 24:	N54 -{Return edge from fibo2 to fibo1: iVar1 = fibo2(n - 1);}-> N50
line 25:	N50 -{fibo2(n - 2)}-> N55
none:	N55 -{Function start dummy edge}-> N56
	n == 0;
line 32:	N56 -{int iVar1;}-> N57
	n == 0;
line 33:	N57 -{int iVar2;}-> N58
	iVar2 == 1;
line 34:	N58 -{int n_local;}-> N59
line 36:	N59 -{[n < 1]}-> N61
	n == 0;
	n == 0;
line 37:	N61 -{iVar2 = 0;}-> N63
	iVar2 == 0;
none:	N63 -{}-> N60
line 47:	N60 -{return iVar2;}-> N54
	iVar2 = 0
line 25:	N54 -{Return edge from fibo2 to fibo1: iVar2 = fibo2(n - 2);}-> N51
line 26:	N51 -{iVar2 = iVar2 + iVar1;}-> N52
	iVar2 == 1;
none:	N52 -{}-> N42
line 28:	N42 -{return iVar2;}-> N36
	iVar2 = 1
line 55:	N36 -{Return edge from fibo1 to main: iVar1 = fibo1(2);}-> N78
line 56:	N78 -{[iVar1 == 1]}-> N80
	iVar1 == 1;
	iVar1 == 1;
line 57:	N80 -{int __CPAchecker_TMP_2;}-> N81
line 57:	N81 -{}-> N83
line 57:	N83 -{__CPAchecker_TMP_2 = 0;}-> N85
line 57:	N85 -{4UL;}-> N86
line 57:	N86 -{}-> N89
line 57:	N89 -{__assert_fail("0 && \"Assertion failed: iVar1 should not equal 1\"", "/home/zyl/biVerify/CPA_DATA2/C/F/llmfix/realOutput/iterationTry/fibo_2calls_2-1_process_dc_iter1.c", 57, "__PRETTY_FUNCTION__");}-> N370
